c Created with the Wolfram Language : www.wolfram.com
c 
p edge 100 747
e 1 3
e 4 5
e 1 6
e 5 7
e 4 8
e 7 8
e 5 9
e 1 10
e 2 10
e 6 10
e 7 10
e 1 11
e 2 11
e 8 11
e 2 13
e 5 14
e 8 14
e 1 15
e 8 15
e 10 15
e 3 16
e 8 16
e 10 16
e 11 16
e 14 16
e 2 17
e 16 17
e 8 18
e 15 18
e 4 19
e 8 19
e 10 19
e 12 19
e 13 19
e 14 19
e 14 20
e 18 20
e 2 21
e 12 21
e 17 21
e 2 22
e 13 22
e 14 22
e 16 22
e 21 22
e 8 23
e 11 23
e 12 23
e 17 23
e 22 23
e 3 24
e 12 24
e 15 24
e 7 25
e 10 26
e 15 26
e 19 26
e 3 27
e 4 28
e 11 28
e 12 28
e 15 28
e 20 28
e 21 28
e 1 29
e 12 29
e 14 29
e 19 29
e 23 29
e 4 30
e 15 30
e 29 30
e 22 31
e 24 31
e 27 31
e 1 32
e 7 32
e 8 32
e 16 32
e 23 32
e 24 32
e 3 33
e 8 33
e 9 33
e 13 33
e 20 33
e 29 33
e 19 34
e 22 34
e 25 34
e 32 34
e 3 35
e 9 35
e 17 35
e 18 35
e 9 36
e 11 36
e 30 36
e 31 36
e 35 36
e 9 37
e 10 37
e 15 37
e 19 37
e 26 37
e 27 37
e 1 38
e 6 38
e 22 38
e 23 38
e 32 38
e 2 39
e 5 39
e 8 39
e 13 39
e 16 39
e 21 39
e 31 39
e 1 40
e 2 40
e 4 40
e 8 40
e 11 40
e 15 40
e 34 40
e 1 41
e 4 41
e 7 41
e 11 41
e 34 41
e 15 42
e 23 42
e 28 42
e 31 42
e 32 42
e 36 42
e 1 43
e 6 43
e 12 43
e 31 43
e 32 43
e 35 43
e 2 44
e 23 44
e 24 44
e 25 44
e 28 44
e 29 44
e 41 44
e 9 45
e 15 45
e 19 45
e 25 45
e 31 45
e 2 46
e 5 46
e 10 46
e 25 46
e 29 46
e 38 46
e 42 46
e 1 47
e 4 47
e 5 47
e 8 47
e 23 47
e 43 47
e 2 48
e 9 48
e 11 48
e 15 48
e 21 48
e 37 48
e 39 48
e 6 49
e 7 49
e 9 49
e 15 49
e 18 49
e 24 49
e 25 49
e 29 49
e 32 49
e 33 49
e 35 49
e 37 49
e 44 49
e 4 50
e 11 50
e 13 50
e 26 50
e 28 50
e 46 50
e 1 51
e 11 51
e 18 51
e 33 51
e 48 51
e 4 52
e 9 52
e 15 52
e 21 52
e 24 52
e 47 52
e 2 53
e 11 53
e 17 53
e 26 53
e 36 53
e 44 53
e 46 53
e 8 54
e 16 54
e 18 54
e 29 54
e 30 54
e 4 55
e 12 55
e 13 55
e 22 55
e 29 55
e 38 55
e 3 56
e 7 56
e 20 56
e 31 56
e 38 56
e 46 56
e 15 57
e 19 57
e 31 57
e 39 57
e 52 57
e 55 57
e 6 58
e 10 58
e 13 58
e 17 58
e 20 58
e 37 58
e 43 58
e 46 58
e 56 58
e 19 59
e 20 59
e 23 59
e 34 59
e 35 59
e 41 59
e 47 59
e 52 59
e 2 60
e 5 60
e 24 60
e 29 60
e 32 60
e 35 60
e 40 60
e 44 60
e 56 60
e 6 61
e 7 61
e 10 61
e 17 61
e 20 61
e 25 61
e 27 61
e 35 61
e 41 61
e 44 61
e 47 61
e 2 62
e 5 62
e 9 62
e 15 62
e 16 62
e 28 62
e 34 62
e 35 62
e 36 62
e 37 62
e 46 62
e 52 62
e 54 62
e 59 62
e 7 63
e 10 63
e 24 63
e 30 63
e 35 63
e 37 63
e 57 63
e 62 63
e 7 64
e 9 64
e 27 64
e 32 64
e 43 64
e 10 65
e 18 65
e 27 65
e 28 65
e 32 65
e 36 65
e 45 65
e 59 65
e 1 66
e 12 66
e 14 66
e 20 66
e 30 66
e 36 66
e 38 66
e 46 66
e 60 66
e 61 66
e 65 66
e 7 67
e 19 67
e 21 67
e 23 67
e 37 67
e 40 67
e 51 67
e 54 67
e 64 67
e 5 68
e 7 68
e 17 68
e 18 68
e 23 68
e 26 68
e 30 68
e 35 68
e 37 68
e 38 68
e 41 68
e 48 68
e 53 68
e 66 68
e 1 69
e 2 69
e 5 69
e 11 69
e 14 69
e 21 69
e 27 69
e 28 69
e 37 69
e 39 69
e 55 69
e 60 69
e 63 69
e 64 69
e 3 70
e 4 70
e 11 70
e 15 70
e 18 70
e 24 70
e 37 70
e 46 70
e 61 70
e 63 70
e 64 70
e 67 70
e 15 71
e 21 71
e 25 71
e 32 71
e 33 71
e 51 71
e 56 71
e 57 71
e 59 71
e 60 71
e 61 71
e 65 71
e 7 72
e 20 72
e 49 72
e 50 72
e 52 72
e 59 72
e 63 72
e 4 73
e 15 73
e 20 73
e 25 73
e 31 73
e 38 73
e 47 73
e 48 73
e 52 73
e 68 73
e 72 73
e 19 74
e 28 74
e 30 74
e 37 74
e 38 74
e 50 74
e 52 74
e 65 74
e 73 74
e 5 75
e 17 75
e 20 75
e 50 75
e 1 76
e 5 76
e 6 76
e 10 76
e 26 76
e 34 76
e 38 76
e 48 76
e 56 76
e 57 76
e 58 76
e 64 76
e 74 76
e 75 76
e 10 77
e 15 77
e 19 77
e 21 77
e 31 77
e 43 77
e 44 77
e 45 77
e 50 77
e 60 77
e 8 78
e 16 78
e 17 78
e 19 78
e 22 78
e 34 78
e 36 78
e 45 78
e 47 78
e 49 78
e 57 78
e 58 78
e 60 78
e 62 78
e 68 78
e 70 78
e 17 79
e 21 79
e 25 79
e 28 79
e 32 79
e 38 79
e 39 79
e 46 79
e 47 79
e 51 79
e 54 79
e 59 79
e 60 79
e 62 79
e 68 79
e 70 79
e 75 79
e 3 80
e 9 80
e 15 80
e 26 80
e 28 80
e 36 80
e 41 80
e 42 80
e 59 80
e 60 80
e 65 80
e 68 80
e 71 80
e 72 80
e 2 81
e 5 81
e 8 81
e 39 81
e 59 81
e 60 81
e 74 81
e 5 82
e 10 82
e 15 82
e 23 82
e 29 82
e 52 82
e 53 82
e 56 82
e 57 82
e 59 82
e 69 82
e 73 82
e 81 82
e 13 83
e 20 83
e 22 83
e 24 83
e 27 83
e 29 83
e 53 83
e 55 83
e 57 83
e 62 83
e 68 83
e 73 83
e 6 84
e 13 84
e 19 84
e 20 84
e 21 84
e 26 84
e 34 84
e 36 84
e 37 84
e 38 84
e 42 84
e 52 84
e 53 84
e 55 84
e 67 84
e 69 84
e 75 84
e 78 84
e 2 85
e 6 85
e 15 85
e 38 85
e 39 85
e 56 85
e 59 85
e 62 85
e 64 85
e 67 85
e 75 85
e 76 85
e 80 85
e 6 86
e 45 86
e 61 86
e 83 86
e 84 86
e 85 86
e 11 87
e 28 87
e 45 87
e 52 87
e 54 87
e 68 87
e 74 87
e 82 87
e 85 87
e 86 87
e 13 88
e 17 88
e 18 88
e 28 88
e 48 88
e 53 88
e 66 88
e 75 88
e 81 88
e 82 88
e 86 88
e 16 89
e 22 89
e 23 89
e 27 89
e 31 89
e 37 89
e 38 89
e 48 89
e 53 89
e 56 89
e 66 89
e 67 89
e 70 89
e 75 89
e 76 89
e 7 90
e 27 90
e 28 90
e 40 90
e 41 90
e 49 90
e 54 90
e 55 90
e 61 90
e 67 90
e 85 90
e 86 90
e 8 91
e 9 91
e 10 91
e 24 91
e 26 91
e 38 91
e 44 91
e 63 91
e 66 91
e 75 91
e 8 92
e 9 92
e 17 92
e 18 92
e 27 92
e 35 92
e 40 92
e 55 92
e 56 92
e 58 92
e 61 92
e 65 92
e 67 92
e 68 92
e 70 92
e 72 92
e 90 92
e 1 93
e 5 93
e 17 93
e 20 93
e 28 93
e 31 93
e 32 93
e 35 93
e 37 93
e 38 93
e 49 93
e 50 93
e 73 93
e 4 94
e 10 94
e 26 94
e 30 94
e 38 94
e 42 94
e 59 94
e 63 94
e 68 94
e 73 94
e 81 94
e 89 94
e 91 94
e 2 95
e 6 95
e 19 95
e 25 95
e 33 95
e 44 95
e 55 95
e 58 95
e 78 95
e 94 95
e 3 96
e 7 96
e 11 96
e 16 96
e 17 96
e 21 96
e 31 96
e 32 96
e 35 96
e 37 96
e 38 96
e 43 96
e 48 96
e 66 96
e 70 96
e 75 96
e 80 96
e 86 96
e 87 96
e 91 96
e 1 97
e 8 97
e 9 97
e 13 97
e 19 97
e 20 97
e 31 97
e 40 97
e 42 97
e 44 97
e 45 97
e 59 97
e 60 97
e 69 97
e 78 97
e 5 98
e 6 98
e 12 98
e 13 98
e 16 98
e 27 98
e 33 98
e 34 98
e 36 98
e 46 98
e 50 98
e 51 98
e 53 98
e 54 98
e 55 98
e 60 98
e 74 98
e 83 98
e 91 98
e 92 98
e 95 98
e 3 99
e 5 99
e 6 99
e 9 99
e 10 99
e 11 99
e 15 99
e 23 99
e 31 99
e 37 99
e 48 99
e 52 99
e 54 99
e 55 99
e 66 99
e 72 99
e 74 99
e 75 99
e 81 99
e 3 100
e 8 100
e 15 100
e 17 100
e 23 100
e 29 100
e 33 100
e 47 100
e 60 100
e 72 100
e 79 100
e 95 100
